B=4;
D=1;
P=6;
S=6;
demands = [1 5 5 1 4 5 ];
capacities = [10 6 5 2 7 10 ];
dist_start = [6 5 6 8 1 4 ];
dist = [9 3 3 7 4 9 10 8 6 10 1 7 10 6 1 2 6 10 5 5 4 10 10 1 5 4 8 4 7 1 6 7 5 8 4 10 ];
